* ENCODING=ISO-8859-1
NAME          CPLEX
ROWS
 N  obj1    
 G  c1      
 G  c2      
 G  c3      
 G  c4      
 G  c5      
 G  c6      
 G  c7      
 G  c8      
 G  c9      
 G  c10     
 G  c11     
 G  c12     
 G  c13     
 G  c14     
 G  c15     
 G  c16     
 G  c17     
 G  c18     
 G  c19     
 G  c20     
 G  c21     
 G  c22     
 G  c23     
 G  c24     
 G  c25     
 G  c26     
 G  c27     
 G  c28     
 G  c29     
 G  c30     
 G  c31     
 G  c32     
 G  c33     
 G  c34     
 G  c35     
 G  c36     
 G  c37     
 G  c38     
 G  c39     
 G  c40     
 G  c41     
 G  c42     
 G  c43     
 G  c44     
 G  c45     
 G  c46     
 G  c47     
 G  c48     
 G  c49     
 G  c50     
 G  c51     
 G  c52     
 G  c53     
 G  c54     
 G  c55     
 G  c56     
 G  c57     
 G  c58     
 G  c59     
 G  c60     
COLUMNS
    MARK0000  'MARKER'                 'INTORG'
    x1        obj1                            1
    x1        c8                            391
    x1        c16                           806
    x1        c21                           711
    x1        c29                           911
    x1        c44                           827
    x1        c52                           232
    x1        c55                           646
    x2        obj1                            1
    x2        c29                           590
    x2        c40                           670
    x2        c46                           844
    x3        obj1                            1
    x3        c2                            295
    x3        c7                            413
    x3        c20                           481
    x3        c25                           772
    x3        c26                           860
    x3        c36                           601
    x3        c39                           116
    x3        c51                           168
    x3        c56                           299
    x4        obj1                            1
    x4        c10                           449
    x4        c11                           135
    x4        c17                           852
    x4        c37                           661
    x4        c39                           649
    x5        obj1                            1
    x5        c1                            387
    x5        c7                            282
    x5        c21                           376
    x5        c28                           787
    x5        c39                           374
    x5        c48                           738
    x5        c52                           903
    x5        c58                           121
    x6        obj1                            1
    x6        c11                           206
    x6        c33                           348
    x7        obj1                            1
    x7        c2                            895
    x7        c11                           465
    x7        c15                           769
    x7        c21                           757
    x7        c27                           501
    x7        c31                           437
    x7        c53                           455
    x8        obj1                            1
    x8        c3                            963
    x8        c26                           725
    x8        c28                           282
    x8        c38                           176
    x8        c56                           514
    x9        obj1                            1
    x9        c5                            694
    x9        c8                            903
    x9        c19                           258
    x9        c30                           168
    x9        c32                           894
    x9        c42                           426
    x9        c57                           663
    x10       obj1                            1
    x10       c8                            949
    x10       c16                           997
    x10       c23                           749
    x10       c28                           930
    x11       obj1                            1
    x11       c12                           302
    x11       c15                           845
    x11       c35                           714
    x11       c46                           137
    x11       c51                           668
    x11       c54                           697
    x12       obj1                            1
    x12       c6                            433
    x12       c17                           213
    x12       c19                           548
    x12       c25                           653
    x12       c26                           556
    x12       c31                           633
    x12       c37                           668
    x12       c55                           909
    x13       obj1                            1
    x13       c1                            410
    x13       c6                            997
    x13       c19                           755
    x14       obj1                            1
    x14       c27                           602
    x14       c34                           285
    x14       c38                           217
    x14       c49                           967
    x14       c53                           150
    x15       obj1                            1
    x15       c28                           769
    x15       c44                           879
    x15       c50                           695
    x15       c54                           118
    x15       c55                           355
    x16       obj1                            1
    x16       c3                            315
    x16       c9                            837
    x16       c38                           378
    x16       c40                           214
    x16       c42                           881
    x17       obj1                            1
    x17       c9                            332
    x17       c19                           595
    x17       c21                           709
    x17       c44                           158
    x17       c45                           582
    x17       c52                           636
    x17       c60                           890
    x18       obj1                            1
    x18       c36                           731
    x18       c45                           844
    x18       c58                           212
    x19       obj1                            1
    x19       c15                           998
    x19       c18                           728
    x19       c38                           482
    x19       c39                           674
    x19       c43                           346
    x19       c44                           679
    x19       c45                           980
    x19       c59                           532
    x20       obj1                            1
    x20       c1                            953
    x20       c6                            910
    x20       c26                           647
    x20       c27                           861
    x20       c34                           254
    x20       c39                           603
    x20       c47                           133
    x21       obj1                            1
    x21       c3                            719
    x21       c7                            338
    x21       c12                           272
    x21       c17                           731
    x21       c25                           125
    x21       c50                           169
    x21       c56                           534
    x22       obj1                            1
    x22       c10                           539
    x22       c32                           974
    x23       obj1                            1
    x23       c2                            586
    x23       c5                            854
    x23       c12                           314
    x23       c20                           726
    x23       c34                           196
    x23       c44                           462
    x24       obj1                            1
    x24       c1                            876
    x24       c16                           507
    x24       c36                           225
    x24       c50                           104
    x24       c52                           254
    x25       obj1                            1
    x25       c4                            223
    x25       c10                           667
    x25       c13                           630
    x25       c23                           332
    x25       c49                           144
    x25       c50                           857
    x25       c53                           250
    x26       obj1                            1
    x26       c1                            431
    x26       c6                            694
    x26       c31                           945
    x26       c33                           613
    x26       c42                           510
    x27       obj1                            1
    x27       c2                            663
    x27       c31                           998
    x27       c39                           245
    x27       c40                           293
    x27       c46                           480
    x27       c47                           390
    x27       c49                           464
    x27       c52                           989
    x27       c53                           355
    x27       c55                           964
    x28       obj1                            1
    x28       c2                            673
    x28       c4                            645
    x28       c15                           444
    x28       c23                           484
    x28       c24                           254
    x28       c38                           791
    x28       c39                           122
    x28       c44                           874
    x28       c49                           432
    x28       c59                           215
    x29       obj1                            1
    x29       c21                           499
    x29       c30                           292
    x29       c35                           974
    x29       c49                           555
    x29       c50                           196
    x29       c51                           412
    x30       obj1                            1
    x30       c10                           595
    x30       c18                           818
    x30       c27                           199
    x30       c33                           433
    x30       c36                           732
    x30       c38                           233
    x30       c41                           959
    x30       c46                           587
    x31       obj1                            1
    x31       c2                            559
    x31       c12                           856
    x31       c47                           852
    x31       c49                           376
    x32       obj1                            1
    x32       c10                           357
    x32       c26                           826
    x32       c38                           706
    x32       c49                           510
    x32       c50                           894
    x33       obj1                            1
    x33       c7                            427
    x33       c9                            677
    x33       c12                           717
    x33       c15                           958
    x33       c24                           586
    x33       c30                           168
    x33       c41                           624
    x33       c42                           859
    x33       c44                           493
    x33       c57                           484
    x34       obj1                            1
    x34       c8                            464
    x34       c12                           981
    x34       c13                           841
    x34       c19                           393
    x34       c57                           282
    x35       obj1                            1
    x35       c15                           176
    x35       c39                           568
    x35       c42                           984
    x36       obj1                            1
    x36       c16                           384
    x36       c35                           732
    x36       c52                           755
    x37       obj1                            1
    x37       c3                            808
    x37       c14                           755
    x37       c37                           917
    x37       c38                           909
    x37       c56                           890
    x38       obj1                            1
    x38       c7                            515
    x38       c15                           687
    x38       c23                           357
    x38       c55                           919
    x38       c56                           691
    x39       obj1                            1
    x39       c20                           242
    x39       c21                           214
    x39       c25                           193
    x39       c37                           212
    x39       c40                           753
    x39       c41                           351
    x39       c55                           713
    x40       obj1                            1
    x40       c35                           195
    x40       c54                           324
    x40       c59                           548
    x41       obj1                            1
    x41       c5                            359
    x41       c20                           558
    x41       c21                           782
    x41       c25                           876
    x41       c26                           321
    x41       c47                           191
    x41       c51                           789
    x42       obj1                            1
    x42       c3                            924
    x42       c4                            647
    x42       c20                           156
    x42       c31                           648
    x42       c34                           886
    x42       c48                           641
    x43       obj1                            1
    x43       c7                            148
    x43       c37                           592
    x43       c49                           248
    x43       c56                           320
    x44       obj1                            1
    x44       c9                            933
    x44       c13                           584
    x44       c22                           622
    x44       c24                           867
    x44       c30                           604
    x44       c33                           981
    x44       c45                           998
    x45       obj1                            1
    x45       c7                            560
    x45       c20                           607
    x45       c31                           314
    x45       c35                           525
    x45       c53                           489
    x45       c56                           721
    x45       c57                           874
    x46       obj1                            1
    x46       c4                            540
    x46       c17                           731
    x46       c18                           921
    x46       c24                           263
    x46       c25                           381
    x46       c36                           996
    x46       c43                           759
    x46       c44                           877
    x47       obj1                            1
    x47       c25                           802
    x47       c28                           559
    x47       c32                           523
    x47       c40                           383
    x47       c57                           483
    x48       obj1                            1
    x48       c9                            800
    x48       c26                           536
    x48       c31                           412
    x48       c37                           700
    x48       c42                           791
    x48       c48                           741
    x48       c55                           167
    x48       c56                           171
    x48       c60                           918
    x49       obj1                            1
    x49       c14                           446
    x49       c20                           598
    x49       c21                           464
    x49       c22                           497
    x49       c28                           239
    x49       c37                           201
    x49       c60                           912
    x50       obj1                            1
    x50       c3                            130
    x50       c11                           252
    x50       c21                           414
    x50       c40                           589
    x50       c42                           664
    x50       c47                           985
    x50       c55                           856
    x50       c57                           384
    x51       obj1                            1
    x51       c8                            853
    x51       c36                           932
    x51       c52                           916
    x51       c55                           268
    x52       obj1                            1
    x52       c24                           468
    x52       c32                           486
    x52       c42                           684
    x52       c44                           769
    x52       c56                           979
    x53       obj1                            1
    x53       c2                            253
    x53       c19                           500
    x53       c22                           447
    x53       c30                           374
    x53       c39                           818
    x53       c58                           778
    x54       obj1                            1
    x54       c2                            828
    x54       c7                            947
    x54       c15                           648
    x54       c22                           534
    x54       c30                           409
    x54       c33                           964
    x54       c40                           880
    x55       obj1                            1
    x55       c3                            537
    x55       c16                           211
    x55       c30                           575
    x55       c34                           435
    x56       obj1                            1
    x56       c8                            654
    x56       c26                           348
    x56       c34                           332
    x56       c40                           819
    x56       c45                           858
    x56       c52                           430
    x57       obj1                            1
    x57       c2                            525
    x57       c10                           906
    x57       c47                           181
    x58       obj1                            1
    x58       c8                            589
    x58       c10                           935
    x58       c14                           624
    x58       c49                           905
    x58       c50                           397
    x59       obj1                            1
    x59       c3                            560
    x59       c26                           924
    x59       c28                           327
    x59       c29                           776
    x59       c31                           367
    x59       c37                           634
    x60       obj1                            1
    x60       c5                            569
    x60       c17                           882
    x60       c35                           203
    x60       c36                           684
    x60       c37                           387
    x60       c43                           407
    x60       c53                           375
    MARK0001  'MARKER'                 'INTEND'
RHS
    rhs       c1                           1529
    rhs       c2                           2639
    rhs       c3                           2478
    rhs       c4                           1028
    rhs       c5                           1238
    rhs       c6                           1517
    rhs       c7                           1815
    rhs       c8                           2402
    rhs       c9                           1790
    rhs       c10                          2224
    rhs       c11                           529
    rhs       c12                          1721
    rhs       c13                          1028
    rhs       c14                           913
    rhs       c15                          2763
    rhs       c16                          1453
    rhs       c17                          1705
    rhs       c18                          1234
    rhs       c19                          1525
    rhs       c20                          1684
    rhs       c21                          2463
    rhs       c22                          1050
    rhs       c23                           961
    rhs       c24                          1219
    rhs       c25                          1901
    rhs       c26                          2872
    rhs       c27                          1082
    rhs       c28                          1947
    rhs       c29                          1139
    rhs       c30                          1295
    rhs       c31                          2377
    rhs       c32                          1439
    rhs       c33                          1670
    rhs       c34                          1194
    rhs       c35                          1672
    rhs       c36                          2451
    rhs       c37                          2486
    rhs       c38                          1946
    rhs       c39                          2085
    rhs       c40                          2301
    rhs       c41                           967
    rhs       c42                          2900
    rhs       c43                           756
    rhs       c44                          3009
    rhs       c45                          2131
    rhs       c46                          1024
    rhs       c47                          1366
    rhs       c48                          1060
    rhs       c49                          2301
    rhs       c50                          1656
    rhs       c51                          1019
    rhs       c52                          2558
    rhs       c53                          1037
    rhs       c54                           570
    rhs       c55                          2899
    rhs       c56                          2560
    rhs       c57                          1585
    rhs       c58                           556
    rhs       c59                           648
    rhs       c60                          1360
BOUNDS
 LI bnd       x1        0
 LI bnd       x2        0
 LI bnd       x3        0
 LI bnd       x4        0
 LI bnd       x5        0
 LI bnd       x6        0
 LI bnd       x7        0
 LI bnd       x8        0
 LI bnd       x9        0
 LI bnd       x10       0
 LI bnd       x11       0
 LI bnd       x12       0
 LI bnd       x13       0
 LI bnd       x14       0
 LI bnd       x15       0
 LI bnd       x16       0
 LI bnd       x17       0
 LI bnd       x18       0
 LI bnd       x19       0
 LI bnd       x20       0
 LI bnd       x21       0
 LI bnd       x22       0
 LI bnd       x23       0
 LI bnd       x24       0
 LI bnd       x25       0
 LI bnd       x26       0
 LI bnd       x27       0
 LI bnd       x28       0
 LI bnd       x29       0
 LI bnd       x30       0
 LI bnd       x31       0
 LI bnd       x32       0
 LI bnd       x33       0
 LI bnd       x34       0
 LI bnd       x35       0
 LI bnd       x36       0
 LI bnd       x37       0
 LI bnd       x38       0
 LI bnd       x39       0
 LI bnd       x40       0
 LI bnd       x41       0
 LI bnd       x42       0
 LI bnd       x43       0
 LI bnd       x44       0
 LI bnd       x45       0
 LI bnd       x46       0
 LI bnd       x47       0
 LI bnd       x48       0
 LI bnd       x49       0
 LI bnd       x50       0
 LI bnd       x51       0
 LI bnd       x52       0
 LI bnd       x53       0
 LI bnd       x54       0
 LI bnd       x55       0
 LI bnd       x56       0
 LI bnd       x57       0
 LI bnd       x58       0
 LI bnd       x59       0
 LI bnd       x60       0
ENDATA
